ISYM = 1
LWAVE = T
LCHARG = F
ICHARG = 1
SIGMA = 0.01
ISMEAR = -1
ENCUT = 400

#NBANDS = 800
#LOPTICS = T
#NEDOS = 5000

LORBIT = 11
ADDGRID = T

ALGO = F
EDIFF = 1E-6
LREAL = A
NELMIN = 3

NSIM = 1
LPLANE = T
NPAR = 1
NCORE = 20

ISPIN = 2
MAGMOM = 98*0
NUPDOWN = 0

NSW = 30
EDIFFG = -0.01
IBRION = 2

