poscar.py                               
   1.00000000000000     
     8.7534720000000004  -15.1614582466315522    0.0000000000000000
     8.7534720000000004   15.1614582466315522    0.0000000000000000
     0.0000000000000000    0.0000000000000000   16.0000000000000000
   B    N    C 
    49    47     2
Direct
  0.0454737228471558  0.0971570079290203  0.0000000000000000
  0.1930235127668567  0.0976353245565207  0.0000000000000000
  0.3331832403468056  0.0976353245565207  0.0000000000000000
  0.4802547136390061  0.0971570079290203  0.0000000000000000
  0.6204658343093854  0.0955540720322929  0.0000000000000000
  0.7620017072936918  0.0954319860302348  0.0000000000000000
  0.9036596662800562  0.0955540720322929  0.0000000000000000
  0.0473248413704823  0.2393989281016502  0.0000000000000000
  0.1905841595527704  0.2387608306442814  0.0000000000000000
  0.3346136832402635  0.2406559379233926  0.0000000000000000
  0.4767480996486455  0.2387608306442814  0.0000000000000000
  0.6206455152883095  0.2393989281016502  0.0000000000000000
  0.7624623514511626  0.2385713323403849  0.0000000000000000
  0.9046804094463639  0.2385713323403849  0.0000000000000000
  0.0475380572570856  0.3814204282859848  0.0000000000000000
  0.1904029098772781  0.3813464693977977  0.0000000000000000
  0.3335581736422952  0.3818184063831396  0.0000000000000000
  0.4768316612979859  0.3818184063831396  0.0000000000000000
  0.6195149880776682  0.3813464693977977  0.0000000000000000
  0.7624537995860408  0.3814204282859848  0.0000000000000000
  0.9048628729865058  0.3811543174158629  0.0000000000000000
  0.0474649338418089  0.5235299188884355  0.0000000000000000
  0.1903857496203543  0.5236692647754637  0.0000000000000000
  0.3333591351525982  0.5239333310990659  0.0000000000000000
  0.4763248713997612  0.5240783142423808  0.0000000000000000
  0.6191456245036093  0.5239333310990659  0.0000000000000000
  0.7618549437122510  0.5236692647754637  0.0000000000000000
  0.9046364136037681  0.5235299188884355  0.0000000000000000
  0.0469730726792079  0.6653747168012814  0.0000000000000000
  0.1901616425489081  0.6658467743940477  0.0000000000000000
  0.3332529799407098  0.6660680287383656  0.0000000000000000
  0.4762051774346148  0.6666148318291576  0.0000000000000000
  0.6189810829516915  0.6666148318291576  0.0000000000000000
  0.7613864773547903  0.6660680287383656  0.0000000000000000
  0.9042565604022812  0.6658467743940477  0.0000000000000000
  0.0469989794976655  0.8075987060416949  0.0000000000000000
  0.1891711551011710  0.8075987060416949  0.0000000000000000
  0.3329426858206972  0.8078380619576109  0.0000000000000000
  0.4761144807529547  0.8091682012217589  0.0000000000000000
  0.6189828312024233  0.8093942338476978  0.0000000000000000
  0.7616251490259458  0.8091682012217589  0.0000000000000000
  0.9034668046940553  0.8078380619576109  0.0000000000000000
  0.0456081196683016  0.9485005902795649  0.0000000000000000
  0.1900521908898654  0.9515329532225820  0.0000000000000000
  0.3314638991683978  0.9485005902795649  0.0000000000000000
  0.4763771795904503  0.9523051098421362  0.0000000000000000
  0.6192309755230099  0.9523969335958498  0.0000000000000000
  0.7617373866299815  0.9523969335958498  0.0000000000000000
  0.9044993588088275  0.9523051098421362  0.0000000000000000
  0.2386335209286301  0.0486956132715406  0.0000000000000000
  0.5260007422972777  0.0479763053752649  0.0000000000000000
  0.6672682683317461  0.0475736030397869  0.0000000000000000
  0.8088767632937603  0.0475736030397869  0.0000000000000000
  0.9505469916637068  0.0479763053752649  0.0000000000000000
  0.0947146772539824  0.1921588174754589  0.0000000000000000
  0.2398944237663869  0.1929400451063898  0.0000000000000000
  0.3816170499257154  0.1929400451063898  0.0000000000000000
  0.5260155688071890  0.1921588174754589  0.0000000000000000
  0.6674774151436509  0.1909383957664588  0.0000000000000000
  0.8096476158096380  0.1907238030335634  0.0000000000000000
  0.9520324092085275  0.1909383957664588  0.0000000000000000
  0.0951894487547591  0.3342569672808580  0.0000000000000000
  0.2381456559981885  0.3339550524779114  0.0000000000000000
  0.3819540541939048  0.3353366798020900  0.0000000000000000
  0.5243808250654425  0.3339550524779114  0.0000000000000000
  0.6676389471118256  0.3342569672808580  0.0000000000000000
  0.8098305893592652  0.3336446045992361  0.0000000000000000
  0.9523854438256834  0.3336446045992361  0.0000000000000000
  0.0952309386755772  0.4763202506340107  0.0000000000000000
  0.2381614435488331  0.4763831379418093  0.0000000000000000
  0.3811564878822367  0.4767663959394568  0.0000000000000000
  0.5241813366429326  0.4767663959394568  0.0000000000000000
  0.6667931229787030  0.4763831379418093  0.0000000000000000
  0.8096607405441461  0.4763202506340107  0.0000000000000000
  0.9523496525352044  0.4761278764846963  0.0000000000000000
  0.0950148028395290  0.6183689967032819  0.0000000000000000
  0.2380716921306814  0.6186698769347387  0.0000000000000000
  0.3810602839262955  0.6189226325672408  0.0000000000000000
  0.5238883415480942  0.6192052545104758  0.0000000000000000
  0.6664337772266578  0.6189226325672408  0.0000000000000000
  0.8091696133897699  0.6186698769347387  0.0000000000000000
  0.9519256224494654  0.6183689967032819  0.0000000000000000
  0.0942556010599063  0.7599397735341071  0.0000000000000000
  0.2377272244928861  0.7607953832395182  0.0000000000000000
  0.3809637925739864  0.7609941475384332  0.0000000000000000
  0.5238379141552372  0.7618202386880455  0.0000000000000000
  0.6665537531185279  0.7618202386880455  0.0000000000000000
  0.8086017835501593  0.7609941475384332  0.0000000000000000
  0.9516395873323447  0.7607953832395182  0.0000000000000000
  0.0945019297223766  0.9022108305659415  0.0000000000000000
  0.2362803294292846  0.9022108305659415  0.0000000000000000
  0.3804934706789140  0.9027032556150019  0.0000000000000000
  0.5238142330447388  0.9046318177545558  0.0000000000000000
  0.6666067629980716  0.9046420974104166  0.0000000000000000
  0.8093890132955295  0.9046318177545558  0.0000000000000000
  0.9507812135218003  0.9027032556150019  0.0000000000000000
  0.0946372222593155  0.0476899136571802  0.0000000000000000
  0.3816241199835773  0.0476899136571802  0.0000000000000000
 
  0.00000000E+00  0.00000000E+00  0.00000000E+00
  0.00000000E+00  0.00000000E+00  0.00000000E+00
  0.00000000E+00  0.00000000E+00  0.00000000E+00
  0.00000000E+00  0.00000000E+00  0.00000000E+00
  0.00000000E+00  0.00000000E+00  0.00000000E+00
  0.00000000E+00  0.00000000E+00  0.00000000E+00
  0.00000000E+00  0.00000000E+00  0.00000000E+00
  0.00000000E+00  0.00000000E+00  0.00000000E+00
  0.00000000E+00  0.00000000E+00  0.00000000E+00
  0.00000000E+00  0.00000000E+00  0.00000000E+00
  0.00000000E+00  0.00000000E+00  0.00000000E+00
  0.00000000E+00  0.00000000E+00  0.00000000E+00
  0.00000000E+00  0.00000000E+00  0.00000000E+00
  0.00000000E+00  0.00000000E+00  0.00000000E+00
  0.00000000E+00  0.00000000E+00  0.00000000E+00
  0.00000000E+00  0.00000000E+00  0.00000000E+00
  0.00000000E+00  0.00000000E+00  0.00000000E+00
  0.00000000E+00  0.00000000E+00  0.00000000E+00
  0.00000000E+00  0.00000000E+00  0.00000000E+00
  0.00000000E+00  0.00000000E+00  0.00000000E+00
  0.00000000E+00  0.00000000E+00  0.00000000E+00
  0.00000000E+00  0.00000000E+00  0.00000000E+00
  0.00000000E+00  0.00000000E+00  0.00000000E+00
  0.00000000E+00  0.00000000E+00  0.00000000E+00
  0.00000000E+00  0.00000000E+00  0.00000000E+00
  0.00000000E+00  0.00000000E+00  0.00000000E+00
  0.00000000E+00  0.00000000E+00  0.00000000E+00
  0.00000000E+00  0.00000000E+00  0.00000000E+00
  0.00000000E+00  0.00000000E+00  0.00000000E+00
  0.00000000E+00  0.00000000E+00  0.00000000E+00
  0.00000000E+00  0.00000000E+00  0.00000000E+00
  0.00000000E+00  0.00000000E+00  0.00000000E+00
  0.00000000E+00  0.00000000E+00  0.00000000E+00
  0.00000000E+00  0.00000000E+00  0.00000000E+00
  0.00000000E+00  0.00000000E+00  0.00000000E+00
  0.00000000E+00  0.00000000E+00  0.00000000E+00
  0.00000000E+00  0.00000000E+00  0.00000000E+00
  0.00000000E+00  0.00000000E+00  0.00000000E+00
  0.00000000E+00  0.00000000E+00  0.00000000E+00
  0.00000000E+00  0.00000000E+00  0.00000000E+00
  0.00000000E+00  0.00000000E+00  0.00000000E+00
  0.00000000E+00  0.00000000E+00  0.00000000E+00
  0.00000000E+00  0.00000000E+00  0.00000000E+00
  0.00000000E+00  0.00000000E+00  0.00000000E+00
  0.00000000E+00  0.00000000E+00  0.00000000E+00
  0.00000000E+00  0.00000000E+00  0.00000000E+00
  0.00000000E+00  0.00000000E+00  0.00000000E+00
  0.00000000E+00  0.00000000E+00  0.00000000E+00
  0.00000000E+00  0.00000000E+00  0.00000000E+00
  0.00000000E+00  0.00000000E+00  0.00000000E+00
  0.00000000E+00  0.00000000E+00  0.00000000E+00
  0.00000000E+00  0.00000000E+00  0.00000000E+00
  0.00000000E+00  0.00000000E+00  0.00000000E+00
  0.00000000E+00  0.00000000E+00  0.00000000E+00
  0.00000000E+00  0.00000000E+00  0.00000000E+00
  0.00000000E+00  0.00000000E+00  0.00000000E+00
  0.00000000E+00  0.00000000E+00  0.00000000E+00
  0.00000000E+00  0.00000000E+00  0.00000000E+00
  0.00000000E+00  0.00000000E+00  0.00000000E+00
  0.00000000E+00  0.00000000E+00  0.00000000E+00
  0.00000000E+00  0.00000000E+00  0.00000000E+00
  0.00000000E+00  0.00000000E+00  0.00000000E+00
  0.00000000E+00  0.00000000E+00  0.00000000E+00
  0.00000000E+00  0.00000000E+00  0.00000000E+00
  0.00000000E+00  0.00000000E+00  0.00000000E+00
  0.00000000E+00  0.00000000E+00  0.00000000E+00
  0.00000000E+00  0.00000000E+00  0.00000000E+00
  0.00000000E+00  0.00000000E+00  0.00000000E+00
  0.00000000E+00  0.00000000E+00  0.00000000E+00
  0.00000000E+00  0.00000000E+00  0.00000000E+00
  0.00000000E+00  0.00000000E+00  0.00000000E+00
  0.00000000E+00  0.00000000E+00  0.00000000E+00
  0.00000000E+00  0.00000000E+00  0.00000000E+00
  0.00000000E+00  0.00000000E+00  0.00000000E+00
  0.00000000E+00  0.00000000E+00  0.00000000E+00
  0.00000000E+00  0.00000000E+00  0.00000000E+00
  0.00000000E+00  0.00000000E+00  0.00000000E+00
  0.00000000E+00  0.00000000E+00  0.00000000E+00
  0.00000000E+00  0.00000000E+00  0.00000000E+00
  0.00000000E+00  0.00000000E+00  0.00000000E+00
  0.00000000E+00  0.00000000E+00  0.00000000E+00
  0.00000000E+00  0.00000000E+00  0.00000000E+00
  0.00000000E+00  0.00000000E+00  0.00000000E+00
  0.00000000E+00  0.00000000E+00  0.00000000E+00
  0.00000000E+00  0.00000000E+00  0.00000000E+00
  0.00000000E+00  0.00000000E+00  0.00000000E+00
  0.00000000E+00  0.00000000E+00  0.00000000E+00
  0.00000000E+00  0.00000000E+00  0.00000000E+00
  0.00000000E+00  0.00000000E+00  0.00000000E+00
  0.00000000E+00  0.00000000E+00  0.00000000E+00
  0.00000000E+00  0.00000000E+00  0.00000000E+00
  0.00000000E+00  0.00000000E+00  0.00000000E+00
  0.00000000E+00  0.00000000E+00  0.00000000E+00
  0.00000000E+00  0.00000000E+00  0.00000000E+00
  0.00000000E+00  0.00000000E+00  0.00000000E+00
  0.00000000E+00  0.00000000E+00  0.00000000E+00
  0.00000000E+00  0.00000000E+00  0.00000000E+00
  0.00000000E+00  0.00000000E+00  0.00000000E+00
