SYSTEM = AsS2

EDIFF  = 1E-06
EDIFFG =-1E-06
ENCUT  = 400
PREC   = H
SIGMA  = 0.01

LCHARG = F
LORBIT = 11
LWAVE  = F
LREAL  = F

NPAR    = 2
LSORBIT = T
SAXIS   = 0 0 1
MAGMOM  = 18*0 

ICHARG = 11
