k-points along high symmetry lines
 50              ! 50 intersections 
Line-mode
reciprocal
  0    0    0    ! gamma
  0.5  0    0    ! X

  0.5  0    0    ! X
  0.5  0.5  0    ! S

  0.5  0.5  0    ! S
  0    0.5  0    ! Y

  0    0.5  0    ! S
  0    0    0    ! gamma

