Bi S                                    
   1.00000000000000     
     7.8832173478452958   -2.1230290486364436    0.0000000000000000
     7.8832173478452958    2.1230290486364436    0.0000000000000000
     0.0000000000000000    0.0000000000000000   19.8590421464319107
   Bi   Se
     2     4
Direct
  0.6448737829963306  0.6448737829963306  0.0198632728419537
  0.3551262170036695  0.3551262170036695  0.9801367271580465
  0.7534098684736990  0.7534098684736990  0.9143010102269278
  0.0432450331153875  0.0432450331153875  0.9501589174283083
  0.9567549668846125  0.9567549668846125  0.0498410825716917
  0.2465901315263010  0.2465901315263010  0.0856989897730724
 
  0.00000000E+00  0.00000000E+00  0.00000000E+00
  0.00000000E+00  0.00000000E+00  0.00000000E+00
  0.00000000E+00  0.00000000E+00  0.00000000E+00
  0.00000000E+00  0.00000000E+00  0.00000000E+00
  0.00000000E+00  0.00000000E+00  0.00000000E+00
  0.00000000E+00  0.00000000E+00  0.00000000E+00
