LWAVE = F
LCHARG = F
NWRITE = 1
MAXMIX = 50
LMAXMIX = 4 
LORBIT = 11
ENCUT = 400
#LASPH = T
#NBANDS = 112
ISYM = 1


ALGO = F
EDIFF = 1E-6
LREAL = A
NELMIN = 2

NELM   = 100
#IVDW   = 12

SIGMA = 0.1


LPLANE = T
NPAR = 4

ICHARG = 11
LSORBIT = T
LORBMOM = T
MAGMOM = 21*0 21*0 21*0
SAXIS = 0 0 1


