bands
 100  #  intersections
Line-mode
rec
0.5 0.0 0.0  #M
0.0 0.0 0.0  #G

0.0 0.0 0.0  #G
0.5 0.5 0.0  #K

