Bi2Te3 BULK 0001, x6 QL                 
   1.00000000000000     
     2.1635254223648603   -3.7473359389481167    0.0000000000000000
     2.1635254223648603    3.7473359389481167    0.0000000000000000
     0.0000000000000000    0.0000000000000000   49.6451228600000007
   C    Te   Bi
     6     9     6
Direct
  0.6667360860288692  0.0000854533562724  0.6332973535794251
 -0.0000854533562723  0.3332639139711303  0.6332973535794251
  0.6667360860288692  0.6666506326726047  0.6332973535794251
  0.3333493673274028  0.3332639139711303  0.6332973535794251
 -0.0000854533562723  0.6666506326726047  0.6332973535794251
  0.3333493673274028  0.0000854533562724  0.6332973535794251
  0.3333333333333357  0.6666666666666643  0.5536174541248271
  0.6666666666666643  0.3333333333333357  0.4752721768008283
  0.0000000000000000  0.0000000000000000  0.3967564579490396
  0.3333333333333357  0.6666666666666643  0.3332590472996464
  0.6666666666666643  0.3333333333333357  0.2544755331413540
  0.0000000000000000  0.0000000000000000  0.1757707029226090
  0.3333333333333357  0.6666666666666643  0.1105449553235349
  0.6666666666666643  0.3333333333333357  0.0319562709509455
  0.0000000000000000  0.0000000000000000  0.9534584680959118
  0.0000000000000000  0.0000000000000000  0.5176351738306885
  0.3333333333333357  0.6666666666666643  0.4329380853817888
  0.0000000000000000  0.0000000000000000  0.2969548644703713
  0.3333333333333357  0.6666666666666643  0.2119957495936927
  0.0000000000000000  0.0000000000000000  0.0743955028636609
  0.3333333333333357  0.6666666666666643  0.9893711357745579
 
  0.00000000E+00  0.00000000E+00  0.00000000E+00
  0.00000000E+00  0.00000000E+00  0.00000000E+00
  0.00000000E+00  0.00000000E+00  0.00000000E+00
  0.00000000E+00  0.00000000E+00  0.00000000E+00
  0.00000000E+00  0.00000000E+00  0.00000000E+00
  0.00000000E+00  0.00000000E+00  0.00000000E+00
  0.00000000E+00  0.00000000E+00  0.00000000E+00
  0.00000000E+00  0.00000000E+00  0.00000000E+00
  0.00000000E+00  0.00000000E+00  0.00000000E+00
  0.00000000E+00  0.00000000E+00  0.00000000E+00
  0.00000000E+00  0.00000000E+00  0.00000000E+00
  0.00000000E+00  0.00000000E+00  0.00000000E+00
  0.00000000E+00  0.00000000E+00  0.00000000E+00
  0.00000000E+00  0.00000000E+00  0.00000000E+00
  0.00000000E+00  0.00000000E+00  0.00000000E+00
  0.00000000E+00  0.00000000E+00  0.00000000E+00
  0.00000000E+00  0.00000000E+00  0.00000000E+00
  0.00000000E+00  0.00000000E+00  0.00000000E+00
  0.00000000E+00  0.00000000E+00  0.00000000E+00
  0.00000000E+00  0.00000000E+00  0.00000000E+00
  0.00000000E+00  0.00000000E+00  0.00000000E+00
