poscar.py                               
   1.00000000000000     
     6.2532428901837491  -10.8309343978671020    0.0000000000000000
     6.2532428901837491   10.8309343978671020    0.0000000000000000
     0.0000000000000000    0.0000000000000000   26.6000000000000014
   Se   In   B    N    C 
    27    18    24    24     2
Selective dynamics
Direct
 -0.0000899257907669 -0.0000239755651299  0.9871501936382714   T   T   F
  0.1110336202053426  0.2222975636031319  0.1281230147474801   T   T   F
  0.0002923502075296  0.0001795877667285  0.2374976936324771   T   T   F
  0.3336620201341300  0.0005197825306508  0.9875247713266475   T   T   F
  0.4448231100936885  0.2224695135674338  0.1288780399662315   T   T   F
  0.3324953549832539  0.9993312944137658  0.2375675521315870   T   T   F
  0.6667317409101565  0.0005624141832777  0.9875247713266475   T   T   F
  0.7775436710189864  0.2224164216025930  0.1288780399662315   T   T   F
  0.6665858008848881  0.9992788807854028  0.2375675521315870   T   T   F
  0.9995891134351602  0.3331455457962655  0.9875247713266475   T   T   F
  0.1107863092594667  0.5553848771296984  0.1283307504323261   T   T   F
  0.0006053309728667  0.3332974603341985  0.2375675521315870   T   T   F
  0.3337114689163031  0.3331947436134330  0.9875247713266475   T   T   F
  0.4446752459204018  0.5554695304207395  0.1283307504323261   T   T   F
  0.3324423875008817  0.3331105636887760  0.2375675521315870   T   T   F
  0.6666291847168889  0.3333052552194077  0.9881638312598966   T   T   F
  0.7775284913151999  0.5551853310663926  0.1288780399662315   T   T   F
  0.6665407967386597  0.3332863928235004  0.2382707705045348   T   T   F
  0.9995872945292048  0.6664326058530095  0.9875247713266475   T   T   F
  0.1109847758736354  0.8887893458065869  0.1281230147474801   T   T   F
  0.0006528610338877  0.6673588926615657  0.2375675521315870   T   T   F
  0.3334154491984179  0.6666958089750136  0.9874104948942488   T   T   F
  0.4446783043248406  0.8891403111171445  0.1283307504323261   T   T   F
  0.3332952760833883  0.6666261994637391  0.2373376511296001   T   T   F
  0.6666733837714880  0.6661151051959394  0.9875247713266475   T   T   F
  0.7780730403076720  0.8890110702282991  0.1281230147474801   T   T   F
  0.6665687973901392  0.6673553357569170  0.2375675521315870   T   T   F
  0.1111216618348694  0.2221265740624634  0.0324849970760539   T   T   F
  0.2221741226082569  0.1110421612265350  0.1890583454093573   T   T   F
  0.4443459218521911  0.2221975385818319  0.0332449560678825   T   T   F
  0.5551545368897418  0.1107296050202790  0.1903403735460785   T   T   F
  0.7778125197552076  0.2221815300540367  0.0332449560678825   T   T   F
  0.8889453793173965  0.1108781351781356  0.1890583454093573   T   T   F
  0.1111019784262706  0.5555246938312391  0.0326850377595065   T   T   F
  0.2225244944895793  0.4448123683144627  0.1889926309169283   T   T   F
  0.4444985743775411  0.5555123593518142  0.0326850377595065   T   T   F
  0.5553014122385452  0.4445467260145831  0.1903403735460785   T   T   F
  0.7777734144579390  0.5556105578283363  0.0332449560678825   T   T   F
  0.8890352151300538  0.4446604099516698  0.1903403735460785   T   T   F
  0.1110540239424853  0.8890036137756889  0.0324849970760539   T   T   F
  0.2224571763646908  0.7777448510270495  0.1889926309169283   T   T   F
  0.4445159312529814  0.8889689642671837  0.0326850377595065   T   T   F
  0.5552948625373713  0.7776206613408939  0.1889926309169283   T   T   F
  0.7776372807815298  0.8887911497017694  0.0324849970760539   T   T   F
  0.8889477113230243  0.7780058134837864  0.1890583454093573   T   T   F
  0.2688252357409691  0.1359536066006453  0.3640806401305120   T   T   T
  0.4669463686171234  0.1333200511399941  0.3634206543555791   T   T   F
  0.6672153373564307  0.1333260903649068  0.3634206543555791   T   T   F
  0.8675433772616262  0.1344247017557759  0.3644618986453239   T   T   F
  0.0656055237788613  0.3324920171234628  0.3630730845197121   T   T   F
  0.2664036247998422  0.3318494407416152  0.3630730845197121   T   T   F
  0.4680519148029242  0.3345174962861201  0.3634206543555791   T   T   F
  0.6668038002199322  0.3333728136574008  0.3626777662537748   T   T   F
  0.8664290226744578  0.3335703229912445  0.3634206543555791   T   T   F
  0.0667042353430971  0.5328657690377299  0.3624512543655243   T   T   F
  0.2666462131792715  0.5331682341439100  0.3639413705132029   T   T   F
  0.4662592406953761  0.5331410270955892  0.3624512543655243   T   T   F
  0.6666927212490938  0.5333997684482782  0.3634206543555791   T   T   F
  0.8666485210737251  0.5332520701556152  0.3634206543555791   T   T   F
  0.0666399297403525  0.7329670679395501  0.3630730845197121   T   T   F
  0.2666953344061398  0.7333247955227229  0.3639413705132029   T   T   F
  0.4665727316445021  0.7333258083677202  0.3639413705132029   T   T   F
  0.6669005454912782  0.7336992142033743  0.3630730845197121   T   T   F
  0.8654209203401645  0.7318332756804713  0.3644618986453239   T   T   F
  0.0640586437820849  0.9311936652025455  0.3626258617450651   T   T   T
  0.2662500669055821  0.9338180987202941  0.3630730845197121   T   T   F
  0.4666361732834647  0.9333320587864549  0.3624512543655243   T   T   F
  0.6669568861902762  0.9334575319052508  0.3630730845197121   T   T   F
  0.8682002516392338  0.9336432147348160  0.3627842257387499   T   T   F
  0.3342191346533021  0.0673905298570933  0.3646991220809142   T   T   F
  0.5340303125258168  0.0667590227149016  0.3623093693244286   T   T   F
  0.7345594688243549  0.0668799084105784  0.3646991220809142   T   T   F
  0.9371324930228768  0.0697493056779401  0.3633970750762269   T   T   T
  0.1303440242630830  0.2629552827616850  0.3630055619839311   T   T   T
  0.3354815925039168  0.2687853486697360  0.3646991220809142   T   T   F
  0.5337843491217870  0.2669613708705182  0.3632085621442798   T   T   F
  0.7335397309015529  0.2665945243204254  0.3632085621442798   T   T   F
  0.9331235045462268  0.2668748805960570  0.3646991220809142   T   T   F
  0.1332234105238402  0.4655670745051407  0.3628439339297458   T   T   F
  0.3322305497621525  0.4656318106755948  0.3628439339297458   T   T   F
  0.5337521437094729  0.4673242282875015  0.3623093693244286   T   T   F
  0.7333963688800849  0.4666999410857205  0.3632085621442798   T   T   F
  0.9333637466075839  0.4665026092369386  0.3623093693244286   T   T   F
  0.1333216090552179  0.6659962551737698  0.3628439339297458   T   T   F
  0.3332689095012315  0.6664261266384905  0.3658303846843225   T   T   F
  0.5332213576933235  0.6667549535166477  0.3628439339297458   T   T   F
  0.7326886004187506  0.6662434131183519  0.3646991220809142   T   T   F
  0.9329986042904976  0.6661496549711644  0.3646991220809142   T   T   F
  0.1326492645210568  0.8657798593124630  0.3624314932174286   T   T   F
  0.3332425797080596  0.8667288510112762  0.3628439339297458   T   T   F
  0.5335527063643399  0.8666982432331425  0.3628439339297458   T   T   F
  0.7344590356757364  0.8677953585994437  0.3624314932174286   T   T   F
  0.9311714560502529  0.8644300053355440  0.3632358481084879   T   T   F
  0.0667001526173746  0.1333555651465529  0.3630380101927218   T   T   T
  0.1302267925269730  0.0698241746175247  0.3625837949618139   T   T   T
 
  0.00000000E+00  0.00000000E+00  0.00000000E+00
  0.00000000E+00  0.00000000E+00  0.00000000E+00
  0.00000000E+00  0.00000000E+00  0.00000000E+00
  0.00000000E+00  0.00000000E+00  0.00000000E+00
  0.00000000E+00  0.00000000E+00  0.00000000E+00
  0.00000000E+00  0.00000000E+00  0.00000000E+00
  0.00000000E+00  0.00000000E+00  0.00000000E+00
  0.00000000E+00  0.00000000E+00  0.00000000E+00
  0.00000000E+00  0.00000000E+00  0.00000000E+00
  0.00000000E+00  0.00000000E+00  0.00000000E+00
  0.00000000E+00  0.00000000E+00  0.00000000E+00
  0.00000000E+00  0.00000000E+00  0.00000000E+00
  0.00000000E+00  0.00000000E+00  0.00000000E+00
  0.00000000E+00  0.00000000E+00  0.00000000E+00
  0.00000000E+00  0.00000000E+00  0.00000000E+00
  0.00000000E+00  0.00000000E+00  0.00000000E+00
  0.00000000E+00  0.00000000E+00  0.00000000E+00
  0.00000000E+00  0.00000000E+00  0.00000000E+00
  0.00000000E+00  0.00000000E+00  0.00000000E+00
  0.00000000E+00  0.00000000E+00  0.00000000E+00
  0.00000000E+00  0.00000000E+00  0.00000000E+00
  0.00000000E+00  0.00000000E+00  0.00000000E+00
  0.00000000E+00  0.00000000E+00  0.00000000E+00
  0.00000000E+00  0.00000000E+00  0.00000000E+00
  0.00000000E+00  0.00000000E+00  0.00000000E+00
  0.00000000E+00  0.00000000E+00  0.00000000E+00
  0.00000000E+00  0.00000000E+00  0.00000000E+00
  0.00000000E+00  0.00000000E+00  0.00000000E+00
  0.00000000E+00  0.00000000E+00  0.00000000E+00
  0.00000000E+00  0.00000000E+00  0.00000000E+00
  0.00000000E+00  0.00000000E+00  0.00000000E+00
  0.00000000E+00  0.00000000E+00  0.00000000E+00
  0.00000000E+00  0.00000000E+00  0.00000000E+00
  0.00000000E+00  0.00000000E+00  0.00000000E+00
  0.00000000E+00  0.00000000E+00  0.00000000E+00
  0.00000000E+00  0.00000000E+00  0.00000000E+00
  0.00000000E+00  0.00000000E+00  0.00000000E+00
  0.00000000E+00  0.00000000E+00  0.00000000E+00
  0.00000000E+00  0.00000000E+00  0.00000000E+00
  0.00000000E+00  0.00000000E+00  0.00000000E+00
  0.00000000E+00  0.00000000E+00  0.00000000E+00
  0.00000000E+00  0.00000000E+00  0.00000000E+00
  0.00000000E+00  0.00000000E+00  0.00000000E+00
  0.00000000E+00  0.00000000E+00  0.00000000E+00
  0.00000000E+00  0.00000000E+00  0.00000000E+00
  0.00000000E+00  0.00000000E+00  0.00000000E+00
  0.00000000E+00  0.00000000E+00  0.00000000E+00
  0.00000000E+00  0.00000000E+00  0.00000000E+00
  0.00000000E+00  0.00000000E+00  0.00000000E+00
  0.00000000E+00  0.00000000E+00  0.00000000E+00
  0.00000000E+00  0.00000000E+00  0.00000000E+00
  0.00000000E+00  0.00000000E+00  0.00000000E+00
  0.00000000E+00  0.00000000E+00  0.00000000E+00
  0.00000000E+00  0.00000000E+00  0.00000000E+00
  0.00000000E+00  0.00000000E+00  0.00000000E+00
  0.00000000E+00  0.00000000E+00  0.00000000E+00
  0.00000000E+00  0.00000000E+00  0.00000000E+00
  0.00000000E+00  0.00000000E+00  0.00000000E+00
  0.00000000E+00  0.00000000E+00  0.00000000E+00
  0.00000000E+00  0.00000000E+00  0.00000000E+00
  0.00000000E+00  0.00000000E+00  0.00000000E+00
  0.00000000E+00  0.00000000E+00  0.00000000E+00
  0.00000000E+00  0.00000000E+00  0.00000000E+00
  0.00000000E+00  0.00000000E+00  0.00000000E+00
  0.00000000E+00  0.00000000E+00  0.00000000E+00
  0.00000000E+00  0.00000000E+00  0.00000000E+00
  0.00000000E+00  0.00000000E+00  0.00000000E+00
  0.00000000E+00  0.00000000E+00  0.00000000E+00
  0.00000000E+00  0.00000000E+00  0.00000000E+00
  0.00000000E+00  0.00000000E+00  0.00000000E+00
  0.00000000E+00  0.00000000E+00  0.00000000E+00
  0.00000000E+00  0.00000000E+00  0.00000000E+00
  0.00000000E+00  0.00000000E+00  0.00000000E+00
  0.00000000E+00  0.00000000E+00  0.00000000E+00
  0.00000000E+00  0.00000000E+00  0.00000000E+00
  0.00000000E+00  0.00000000E+00  0.00000000E+00
  0.00000000E+00  0.00000000E+00  0.00000000E+00
  0.00000000E+00  0.00000000E+00  0.00000000E+00
  0.00000000E+00  0.00000000E+00  0.00000000E+00
  0.00000000E+00  0.00000000E+00  0.00000000E+00
  0.00000000E+00  0.00000000E+00  0.00000000E+00
  0.00000000E+00  0.00000000E+00  0.00000000E+00
  0.00000000E+00  0.00000000E+00  0.00000000E+00
  0.00000000E+00  0.00000000E+00  0.00000000E+00
  0.00000000E+00  0.00000000E+00  0.00000000E+00
  0.00000000E+00  0.00000000E+00  0.00000000E+00
  0.00000000E+00  0.00000000E+00  0.00000000E+00
  0.00000000E+00  0.00000000E+00  0.00000000E+00
  0.00000000E+00  0.00000000E+00  0.00000000E+00
  0.00000000E+00  0.00000000E+00  0.00000000E+00
  0.00000000E+00  0.00000000E+00  0.00000000E+00
  0.00000000E+00  0.00000000E+00  0.00000000E+00
  0.00000000E+00  0.00000000E+00  0.00000000E+00
  0.00000000E+00  0.00000000E+00  0.00000000E+00
  0.00000000E+00  0.00000000E+00  0.00000000E+00
